(set-info :Origin "This instance was generated by: BanditFuzz-- an RL fuzzer for SMT solvers" )
(set-info :Author "Joe Scott, Fed Mora, Vijay Ganesh" )
(set-info :Contact "Joe Scott, joseph.scott@uwaterloo.ca")
(set-logic QF_BV)
(declare-const bool_0 Bool)
(declare-const bool_1 Bool)
(declare-const bool_2 Bool)
(declare-const bool_3 Bool)
(declare-const bool_4 Bool)
(declare-const bv_0 (_ BitVec 32))
(declare-const bv_1 (_ BitVec 32))
(declare-const bv_2 (_ BitVec 32))
(declare-const bv_3 (_ BitVec 32))
(declare-const bv_4 (_ BitVec 32))
(assert (bvugt (bvnor (bvnor #x8baf4ebd  bv_2) (bvnand bv_0 bv_1)) (bvurem (bvsdiv #x6596c8d0  #xd7cfc43d ) (bvashr bv_0 #x2e0f3194 ))))
(assert (bvult (bvand (bvshl #xd31838fc  #xc12e4e62 ) (bvsub #xe0f82269  bv_2)) (bvshl (bvadd bv_4 bv_1) (bvsdiv #x2d8e5671  #x5211180e ))))
(assert (bvult (bvashr (bvsdiv bv_1 #x9b9f8e19 ) (bvlshr #x34669232  bv_3)) (bvxor (bvor bv_3 #x9bdf2975 ) (bvor bv_0 bv_2))))
(assert (bvult (bvashr (bvsub bv_4 #x46b262eb ) (bvadd #x24ac0ac4  #xdbbe44e4 )) (bvshl (bvxnor #x6060668f  bv_0) (bvmul #xf56bf549  bv_1))))
(assert (xor (bvult (bvxor bv_4 #x02bb05ad ) (bvnand bv_4 #xed360fab )) (bvsgt (bvor bv_2 #x34f27bb3 ) (bvurem #x893ece4e  bv_2))))
(check-sat)
(exit)
